c Random generated cnf formula, satisfiable: false
p cnf 10 50
-4 -10 9 0
6 3 -4 0
-9 3 -6 0
-10 -2 -7 0
-5 6 -4 0
2 -10 3 0
1 2 -7 0
7 10 2 0
-5 8 4 0
-2 -1 9 0
-5 -8 -1 0
3 8 9 0
-10 8 4 0
-8 5 -9 0
7 9 -8 0
-8 2 -9 0
-7 -9 -8 0
8 -7 -2 0
-2 6 1 0
-2 -10 6 0
3 1 -5 0
-6 1 8 0
3 2 8 0
8 -10 -5 0
8 5 9 0
-9 6 -3 0
2 1 -6 0
-2 6 -5 0
-7 -4 3 0
1 -2 8 0
9 7 -2 0
-8 -6 -9 0
-8 9 5 0
1 4 -10 0
-8 -5 -7 0
-8 -3 -10 0
10 -7 -5 0
-6 -5 -3 0
-6 10 -5 0
7 -6 -8 0
8 10 -9 0
-1 5 6 0
-10 -4 -9 0
-2 1 -4 0
-5 -7 4 0
-8 7 5 0
10 -2 -7 0
2 1 7 0
-9 7 -4 0
1 9 7 0
